nNurses = 161;
nHours = 38;
minHours = 6;
maxHours = 20;
maxConsec = 10;
maxPresence = 31;
demand = [5, 10, 14, 12, 16, 11, 11, 8, 12, 9, 8, 11, 6, 9, 12, 9, 14, 14, 19, 18, 19, 17, 18, 22, 21, 20, 18, 14, 12, 12, 7, 7, 10, 12, 17, 21, 16, 18];
